CPXPARAM_Read_DataCheck                          1
Found incumbent of value 0.000000 after 0.00 sec. (0.12 ticks)
Tried aggregator 1 time.
MIP Presolve modified 1 coefficients.
Reduced MIP has 349 rows, 4515 columns, and 22551 nonzeros.
Reduced MIP has 4515 binaries, 0 generals, 0 SOSs, and 0 indicators.
Presolve time = 0.02 sec. (8.37 ticks)
Tried aggregator 1 time.
Reduced MIP has 349 rows, 4515 columns, and 22551 nonzeros.
Reduced MIP has 4515 binaries, 0 generals, 0 SOSs, and 0 indicators.
Presolve time = 0.01 sec. (9.99 ticks)
Probing time = 0.02 sec. (4.17 ticks)
Clique table members: 15184.
MIP emphasis: balance optimality and feasibility.
MIP search method: dynamic search.
Parallel mode: deterministic, using up to 4 threads.
Root relaxation solution time = 0.03 sec. (25.82 ticks)

        Nodes                                         Cuts/
   Node  Left     Objective  IInf  Best Integer    Best Bound    ItCnt     Gap

*     0+    0                            0.0000    28058.0000              --- 
      0     0     7262.9533    15        0.0000     7262.9533      664     --- 
*     0+    0                          487.0000     7262.9533              --- 
*     0+    0                         5171.0000     7262.9533            40.46%
      0     0     6284.8469   246     5171.0000     Cuts: 187     1304   21.54%
*     0+    0                         5281.0000     6284.8469            19.01%
      0     0     6000.0440   397     5281.0000     Cuts: 187     1794   13.62%
*     0+    0                         5294.0000     6000.0440            13.34%
      0     0     5825.6353   529     5294.0000     Cuts: 187     2148   10.04%
*     0+    0                         5351.0000     5825.6353             8.87%
      0     0     5625.5756   668     5351.0000     Cuts: 187     2658    5.13%
      0     0     5528.8089   804     5351.0000     Cuts: 187     3458    3.32%
      0     0     5471.3015   891     5351.0000     Cuts: 187     4101    2.25%
      0     0     5442.2584  1046     5351.0000     Cuts: 187     4545    1.71%
      0     0     5423.2837  1146     5351.0000     Cuts: 187     4869    1.35%
      0     0     5413.1443  1129     5351.0000     Cuts: 187     5164    1.16%
      0     0     5403.4024  1051     5351.0000     Cuts: 132     5619    0.98%
      0     0     5395.8275  1104     5351.0000     Cuts: 187     5873    0.84%
      0     0     5388.9772  1100     5351.0000     Cuts: 118     6067    0.71%
      0     0     5387.0325  1107     5351.0000      Cuts: 66     6309    0.67%
      0     0     5382.7662  1145     5351.0000      Cuts: 58     6556    0.59%
      0     0     5380.4508   985     5351.0000      Cuts: 97     6775    0.55%
      0     0     5378.7771  1061     5351.0000      Cuts: 27     6859    0.52%
      0     0     5378.3218  1071     5351.0000      Cuts: 38     6933    0.51%
      0     2     5378.3218  1071     5351.0000     5378.3218     6933    0.51%
Elapsed time = 14.09 sec. (5814.58 ticks, tree = 0.01 MB, solutions = 6)
     35    10     5352.5502   586     5351.0000     5363.0539     9504    0.23%

Clique cuts applied:  877
Cover cuts applied:  21
Implied bound cuts applied:  9
Flow cuts applied:  3
Mixed integer rounding cuts applied:  126
Zero-half cuts applied:  35

Root node processing (before b&c):
  Real time             =   14.06 sec. (5769.33 ticks)
Parallel b&c, 4 threads:
  Real time             =    0.41 sec. (345.35 ticks)
  Sync time (average)   =    0.15 sec.
  Wait time (average)   =    0.00 sec.
                          ------------
Total (root+branch&cut) =   14.47 sec. (6114.68 ticks)
